certificates/rado_a13_c252_N41.cnf
c Rad2 upper bound instance: x1 + 13*x2 - x3 = 252, interval [1,41]
p cnf 41 256
1 9 20 0
-1 -9 -20 0
1 21 22 0
-1 -21 -22 0
1 22 35 0
-1 -22 -35 0
2 10 20 0
-2 -10 -20 0
2 21 23 0
-2 -21 -23 0
2 22 36 0
-2 -22 -36 0
3 11 20 0
-3 -11 -20 0
3 21 24 0
-3 -21 -24 0
3 22 37 0
-3 -22 -37 0
4 12 20 0
-4 -12 -20 0
4 21 25 0
-4 -21 -25 0
4 22 38 0
-4 -22 -38 0
5 13 20 0
-5 -13 -20 0
5 21 26 0
-5 -21 -26 0
5 22 39 0
-5 -22 -39 0
1 6 19 0
-1 -6 -19 0
6 14 20 0
-6 -14 -20 0
6 21 27 0
-6 -21 -27 0
6 22 40 0
-6 -22 -40 0
2 7 19 0
-2 -7 -19 0
7 15 20 0
-7 -15 -20 0
7 21 28 0
-7 -21 -28 0
7 22 41 0
-7 -22 -41 0
3 8 19 0
-3 -8 -19 0
8 16 20 0
-8 -16 -20 0
8 21 29 0
-8 -21 -29 0
4 9 19 0
-4 -9 -19 0
9 17 20 0
-9 -17 -20 0
9 21 30 0
-9 -21 -30 0
5 10 19 0
-5 -10 -19 0
10 18 20 0
-10 -18 -20 0
10 21 31 0
-10 -21 -31 0
6 11 19 0
-6 -11 -19 0
11 19 20 0
-11 -19 -20 0
11 21 32 0
-11 -21 -32 0
7 12 19 0
-7 -12 -19 0
12 20 0
-12 -20 0
12 21 33 0
-12 -21 -33 0
8 13 19 0
-8 -13 -19 0
13 20 21 0
-13 -20 -21 0
13 21 34 0
-13 -21 -34 0
9 14 19 0
-9 -14 -19 0
14 20 22 0
-14 -20 -22 0
14 21 35 0
-14 -21 -35 0
10 15 19 0
-10 -15 -19 0
15 20 23 0
-15 -20 -23 0
15 21 36 0
-15 -21 -36 0
11 16 19 0
-11 -16 -19 0
16 20 24 0
-16 -20 -24 0
16 21 37 0
-16 -21 -37 0
12 17 19 0
-12 -17 -19 0
17 20 25 0
-17 -20 -25 0
17 21 38 0
-17 -21 -38 0
13 18 19 0
-13 -18 -19 0
18 20 26 0
-18 -20 -26 0
18 21 39 0
-18 -21 -39 0
1 18 19 0
-1 -18 -19 0
14 19 0
-14 -19 0
19 20 27 0
-19 -20 -27 0
19 21 40 0
-19 -21 -40 0
2 18 20 0
-2 -18 -20 0
15 19 20 0
-15 -19 -20 0
20 28 0
-20 -28 0
20 21 41 0
-20 -21 -41 0
3 18 21 0
-3 -18 -21 0
16 19 21 0
-16 -19 -21 0
20 21 29 0
-20 -21 -29 0
4 18 22 0
-4 -18 -22 0
17 19 22 0
-17 -19 -22 0
20 22 30 0
-20 -22 -30 0
5 18 23 0
-5 -18 -23 0
18 19 23 0
-18 -19 -23 0
20 23 31 0
-20 -23 -31 0
6 18 24 0
-6 -18 -24 0
19 24 0
-19 -24 0
20 24 32 0
-20 -24 -32 0
7 18 25 0
-7 -18 -25 0
19 20 25 0
-19 -20 -25 0
20 25 33 0
-20 -25 -33 0
8 18 26 0
-8 -18 -26 0
19 21 26 0
-19 -21 -26 0
20 26 34 0
-20 -26 -34 0
9 18 27 0
-9 -18 -27 0
19 22 27 0
-19 -22 -27 0
20 27 35 0
-20 -27 -35 0
10 18 28 0
-10 -18 -28 0
19 23 28 0
-19 -23 -28 0
20 28 36 0
-20 -28 -36 0
11 18 29 0
-11 -18 -29 0
19 24 29 0
-19 -24 -29 0
20 29 37 0
-20 -29 -37 0
12 18 30 0
-12 -18 -30 0
19 25 30 0
-19 -25 -30 0
20 30 38 0
-20 -30 -38 0
13 18 31 0
-13 -18 -31 0
19 26 31 0
-19 -26 -31 0
20 31 39 0
-20 -31 -39 0
1 17 32 0
-1 -17 -32 0
14 18 32 0
-14 -18 -32 0
19 27 32 0
-19 -27 -32 0
20 32 40 0
-20 -32 -40 0
2 17 33 0
-2 -17 -33 0
15 18 33 0
-15 -18 -33 0
19 28 33 0
-19 -28 -33 0
20 33 41 0
-20 -33 -41 0
3 17 34 0
-3 -17 -34 0
16 18 34 0
-16 -18 -34 0
19 29 34 0
-19 -29 -34 0
4 17 35 0
-4 -17 -35 0
17 18 35 0
-17 -18 -35 0
19 30 35 0
-19 -30 -35 0
5 17 36 0
-5 -17 -36 0
18 36 0
-18 -36 0
19 31 36 0
-19 -31 -36 0
6 17 37 0
-6 -17 -37 0
18 19 37 0
-18 -19 -37 0
19 32 37 0
-19 -32 -37 0
7 17 38 0
-7 -17 -38 0
18 20 38 0
-18 -20 -38 0
19 33 38 0
-19 -33 -38 0
8 17 39 0
-8 -17 -39 0
19 34 39 0
-19 -34 -39 0
9 17 40 0
-9 -17 -40 0
18 22 40 0
-18 -22 -40 0
19 35 40 0
-19 -35 -40 0
10 17 41 0
-10 -17 -41 0
18 23 41 0
-18 -23 -41 0
19 36 41 0
-19 -36 -41 0
