certificates/rado_a13_c252_N41.drat
-35 19 18 0
-36 -38 -41 0
-38 -39 -41 0
-18 -39 -40 -41 0
-39 -40 -41 0
d -18 -39 -40 -41 0
-36 39 -41 0
-40 -41 0
d -39 -40 -41 0
20 39 -18 40 0
-20 -41 0
-18 -41 0
-41 0
-22 18 0
-20 -39 18 0
20 -7 0
18 0
-36 0
19 0
-14 0
-24 0
-1 0
-37 0
-13 0
-23 0
-20 0
12 0
28 0
21 0
33 0
22 0
-7 0
6 0
16 0
32 0
9 0
29 0
5 0
31 0
15 0
-30 0
-17 0
-10 0
0
